StringID   Type       x          y          demand     ReadyTime  DueDate    ServiceTime  wp1    wp2    wp3  wp4
D0         d          35.0       35.0       0.0        0.0        230.0      0.0          1      0.5    0.7
S0         f          35.0       35.0       0.0        0.0        230.0      0.0          0.6    1      1    1
S5         f          28.0       62.0       0.0        0.0        230.0      0.0          0.2    0.3    0.2  0.2
S17        f          51.0       7.0        0.0        0.0        230.0      0.0          0.2    0.3    0.2  0.2
S18        f          63.0       12.0       0.0        0.0        230.0      0.0          0.2    0.3    0.2  0.2
C31        c          31.0       52.0       27.0       25.0       35.0       10.0         1      0.5    0.7
C23        c          55.0       5.0        29.0       97.0       107.0      10.0         1      0.5    0.7
C67        c          67.0       5.0        25.0       0.0        176.0      10.0         1      0.5    0.7
C60        c          17.0       34.0       3.0        0.0        201.0      10.0         1      0.5    0.7
C88        c          26.0       52.0       9.0        166.0      176.0      10.0         1      0.5    0.7
C77        c          53.0       43.0       14.0       150.0      160.0      10.0         1      0.5    0.7
C20        c          45.0       65.0       9.0        77.0       87.0       10.0         1      0.5    0.7 
C99        c          20.0       26.0       9.0        138.0      148.0      10.0         1      0.5    0.7
C12        c          50.0       35.0       19.0       177.0      187.0      10.0         1      0.5    0.7
C21        c          45.0       20.0       11.0       0.0        201.0      10.0         1      0.5    0.7

Q Vehicle fuel tank capacity /9.4/
C Vehicle load capacity /200.0/
r fuel consumption rate /0.155/
g inverse refueling rate /0.5/
v average Velocity /1.0/
